\* Investment_Portfolio_Problem *\
Maximize
Maximize_Portfolio_Returns: 0.500803559612 x_VAB + 0.510283502546 x_VBAL
 + 0.516661784585 x_VCN + 0.516181939196 x_VXC - 0.0909090909091 y_1
 - 0.0909090909091 y_10 - 0.0909090909091 y_11 - 0.0909090909091 y_2
 - 0.0909090909091 y_3 - 0.0909090909091 y_4 - 0.0909090909091 y_5
 - 0.0909090909091 y_6 - 0.0909090909091 y_7 - 0.0909090909091 y_8
 - 0.0909090909091 y_9
Subject To
Deviation_Investment_Negative_Relation_1: 0.0508608170374 x_VAB
 + 0.063770344306 x_VBAL + 0.0956591563579 x_VCN + 0.0778699509431 x_VXC + y_1
 >= 0
Deviation_Investment_Negative_Relation_10: - 0.0162376971316 x_VAB
 - 0.0191752166434 x_VBAL - 0.0338898205856 x_VCN - 0.0310437463787 x_VXC
 + y_10 >= 0
Deviation_Investment_Negative_Relation_11: - 0.0316739343685 x_VAB
 - 0.014660125314 x_VBAL + 0.0125687821048 x_VCN - 0.0123682730304 x_VXC
 + y_11 >= 0
Deviation_Investment_Negative_Relation_2: - 0.00234567166096 x_VAB
 + 0.00998855046398 x_VBAL + 0.0118991441929 x_VCN + 0.0204260559626 x_VXC
 + y_2 >= 0
Deviation_Investment_Negative_Relation_3: 0.0120661993276 x_VAB
 - 0.00169908056328 x_VBAL - 0.00729884568264 x_VCN - 0.00456444996891 x_VXC
 + y_3 >= 0
Deviation_Investment_Negative_Relation_4: 0.0126108902549 x_VAB
 + 0.00399837661666 x_VBAL + 0.00504041307482 x_VCN - 0.0106247479571 x_VXC
 + y_4 >= 0
Deviation_Investment_Negative_Relation_5: - 0.0174230789649 x_VAB
 - 0.00986984537192 x_VBAL - 0.0146976149715 x_VCN - 0.00119119160316 x_VXC
 + y_5 >= 0
Deviation_Investment_Negative_Relation_6: - 0.00270280950861 x_VAB
 - 0.0300560561865 x_VBAL - 0.0618007873954 x_VCN - 0.043400346722 x_VXC + y_6
 >= 0
Deviation_Investment_Negative_Relation_7: - 0.00745721063141 x_VAB
 - 0.0353053986067 x_VBAL - 0.0617098696945 x_VCN - 0.0478903218659 x_VXC
 + y_7 >= 0
Deviation_Investment_Negative_Relation_8: 0.00390961486968 x_VAB
 + 0.0433821347738 x_VBAL + 0.0809984378164 x_VCN + 0.0573354808984 x_VXC
 + y_8 >= 0
Deviation_Investment_Negative_Relation_9: - 0.00160711922373 x_VAB
 - 0.0103736834747 x_VBAL - 0.0267689952173 x_VCN - 0.0045484102779 x_VXC
 + y_9 >= 0
Deviation_Investment_Positive_Relation_1: - 0.0508608170374 x_VAB
 - 0.063770344306 x_VBAL - 0.0956591563579 x_VCN - 0.0778699509431 x_VXC + y_1
 >= 0
Deviation_Investment_Positive_Relation_10: 0.0162376971316 x_VAB
 + 0.0191752166434 x_VBAL + 0.0338898205856 x_VCN + 0.0310437463787 x_VXC
 + y_10 >= 0
Deviation_Investment_Positive_Relation_11: 0.0316739343685 x_VAB
 + 0.014660125314 x_VBAL - 0.0125687821048 x_VCN + 0.0123682730304 x_VXC
 + y_11 >= 0
Deviation_Investment_Positive_Relation_2: 0.00234567166096 x_VAB
 - 0.00998855046398 x_VBAL - 0.0118991441929 x_VCN - 0.0204260559626 x_VXC
 + y_2 >= 0
Deviation_Investment_Positive_Relation_3: - 0.0120661993276 x_VAB
 + 0.00169908056328 x_VBAL + 0.00729884568264 x_VCN + 0.00456444996891 x_VXC
 + y_3 >= 0
Deviation_Investment_Positive_Relation_4: - 0.0126108902549 x_VAB
 - 0.00399837661666 x_VBAL - 0.00504041307482 x_VCN + 0.0106247479571 x_VXC
 + y_4 >= 0
Deviation_Investment_Positive_Relation_5: 0.0174230789649 x_VAB
 + 0.00986984537192 x_VBAL + 0.0146976149715 x_VCN + 0.00119119160316 x_VXC
 + y_5 >= 0
Deviation_Investment_Positive_Relation_6: 0.00270280950861 x_VAB
 + 0.0300560561865 x_VBAL + 0.0618007873954 x_VCN + 0.043400346722 x_VXC + y_6
 >= 0
Deviation_Investment_Positive_Relation_7: 0.00745721063141 x_VAB
 + 0.0353053986067 x_VBAL + 0.0617098696945 x_VCN + 0.0478903218659 x_VXC
 + y_7 >= 0
Deviation_Investment_Positive_Relation_8: - 0.00390961486968 x_VAB
 - 0.0433821347738 x_VBAL - 0.0809984378164 x_VCN - 0.0573354808984 x_VXC
 + y_8 >= 0
Deviation_Investment_Positive_Relation_9: 0.00160711922373 x_VAB
 + 0.0103736834747 x_VBAL + 0.0267689952173 x_VCN + 0.0045484102779 x_VXC
 + y_9 >= 0
Low_Bound_Deviation_1: y_1 >= 0
Low_Bound_Deviation_10: y_10 >= 0
Low_Bound_Deviation_11: y_11 >= 0
Low_Bound_Deviation_2: y_2 >= 0
Low_Bound_Deviation_3: y_3 >= 0
Low_Bound_Deviation_4: y_4 >= 0
Low_Bound_Deviation_5: y_5 >= 0
Low_Bound_Deviation_6: y_6 >= 0
Low_Bound_Deviation_7: y_7 >= 0
Low_Bound_Deviation_8: y_8 >= 0
Low_Bound_Deviation_9: y_9 >= 0
Low_Bound_Investment_VAB: x_VAB >= 0
Low_Bound_Investment_VBAL: x_VBAL >= 0
Low_Bound_Investment_VCN: x_VCN >= 0
Low_Bound_Investment_VXC: x_VXC >= 0
Probability_Simplex: x_VAB + x_VBAL + x_VCN + x_VXC = 1
End
